************************************************************************
file with basedata            : md347_.bas
initial value random generator: 6566
************************************************************************
projects                      :  1
jobs (incl. supersource/sink ):  22
horizon                       :  156
RESOURCES
  - renewable                 :  2   R
  - nonrenewable              :  2   N
  - doubly constrained        :  0   D
************************************************************************
PROJECT INFORMATION:
pronr.  #jobs rel.date duedate tardcost  MPM-Time
    1     20      0       17        6       17
************************************************************************
PRECEDENCE RELATIONS:
jobnr.    #modes  #successors   successors
   1        1          3           2   3   4
   2        3          2           7  10
   3        3          3           5   6   8
   4        3          1          10
   5        3          3           9  11  13
   6        3          3          11  14  15
   7        3          3           9  14  15
   8        3          2          18  21
   9        3          3          12  16  21
  10        3          1          13
  11        3          2          16  21
  12        3          1          19
  13        3          2          14  15
  14        3          1          16
  15        3          2          17  19
  16        3          3          17  18  19
  17        3          1          20
  18        3          1          20
  19        3          1          22
  20        3          1          22
  21        3          1          22
  22        1          0        
************************************************************************
REQUESTS/DURATIONS:
jobnr. mode duration  R 1  R 2  N 1  N 2
------------------------------------------------------------------------
  1      1     0       0    0    0    0
  2      1     2       0    7   10    0
         2     3       8    0   10    0
         3     5       7    0   10    0
  3      1     1       5    0    0    3
         2     2       0    8    9    0
         3     5       0    6    3    0
  4      1     1       0    2    0   10
         2     6       0    1    6    0
         3     8       0    1    5    0
  5      1     3       5    0    0    6
         2     4       0    7    0    6
         3     9       0    5    0    5
  6      1     3      10    0    0    6
         2     9       0    4    0    1
         3    10       0    2    9    0
  7      1     1      10    0    4    0
         2     5       6    0    0    3
         3     7       4    0    0    3
  8      1     3       0    9    0    6
         2     6       8    0    0    5
         3     7       7    0    0    4
  9      1     2       8    0    9    0
         2     6       0   10    0    5
         3    10       8    0    0    4
 10      1     1       9    0    5    0
         2     5       6    0    4    0
         3     9       5    0    4    0
 11      1     3       3    0    5    0
         2     6       0    8    0    5
         3     9       0    7    0    5
 12      1     5       0    9    0   10
         2     7       0    7    5    0
         3    10      10    0    0   10
 13      1     1       8    0    3    0
         2     3       0    7    0    5
         3     8       0    4    3    0
 14      1     1       0    8    0   10
         2     3       0    6    0   10
         3     5       8    0    0    9
 15      1     7       0    6    0    4
         2     7       7    0    0    5
         3    10       6    0    0    3
 16      1     3       0    1    8    0
         2     5       6    0    7    0
         3     8       3    0    0    4
 17      1     1       6    0    0    8
         2     3       4    0    0    8
         3     8       2    0    0    6
 18      1     2       7    0    8    0
         2     3       0    3    0    2
         3     4       7    0    7    0
 19      1     5       0    6    0    4
         2     6       0    5    6    0
         3     9       0    5    0    4
 20      1     2       0    6    0    2
         2     2       0    8    3    0
         3     5       0    5    3    0
 21      1     4       0    4    0    3
         2     6       0    3    7    0
         3    10       8    0    5    0
 22      1     0       0    0    0    0
************************************************************************
RESOURCEAVAILABILITIES:
  R 1  R 2  N 1  N 2
   33   25   97   97
************************************************************************
MAXIMAL LAGS:
from  to  type  delay
    1   12   ES      0
    1    2   ES      0
    2   12   ES      0
    1    3   ES      0
    3   12   ES      0
    1    4   ES      0
    4   12   ES      0
    1    5   ES      0
    5   12   ES      0
    1    6   ES      0
    6   12   ES      0
    1    7   ES      0
    7   12   ES      0
    1    8   ES      0
    8   12   ES      0
    1    9   ES      0
    9   12   ES      0
    1   10   ES      0
   10   12   ES      0
    1   11   ES      0
   11   12   ES      0
    1   12   ES      0
    2    7   SS     -8
    2    7   SE      2
    2    7   ES     11
    2    7   EE      3
    2   10   SS      9
    2   10   SE      4
    2   10   ES     -7
    2   10   EE     -7
    3    5   SS    -10
    3    5   SE    -12
    3    5   ES     -7
    3    5   EE      8
    3    6   SS    -10
    3    6   SE      3
    3    6   ES      6
    3    6   EE      5
    3    8   SS     -7
    3    8   SE     -9
    3    8   ES      8
    3    8   EE     -6
    4   10   SS     -4
    4   10   SE      4
    4   10   ES      1
    4   10   EE     -7
    5    9   SS      6
    5    9   SE      5
    5    9   ES     -2
    5    9   EE     11
    5   11   SS      3
    5   11   SE     11
    5   11   ES      9
    5   11   EE      7
    5   13   SS      2
    5   13   SE     -5
    5   13   ES     12
    5   13   EE      1
    6   11   SS     -5
    6   11   SE      5
    6   11   ES     -5
    6   11   EE     -9
    6   14   SS      4
    6   14   SE     -7
    6   14   ES      5
    6   14   EE      9
    6   15   SS     -2
    6   15   SE      1
    6   15   ES    -12
    6   15   EE     -2
    7    9   SS     -5
    7    9   SE      6
    7    9   ES     12
    7    9   EE      2
    7   14   SS     11
    7   14   SE    -12
    7   14   ES      3
    7   14   EE     10
    7   15   SS      6
    7   15   SE      5
    7   15   ES     11
    7   15   EE      8
    8   18   SS      1
    8   18   SE      0
    8   18   ES      9
    8   18   EE     -9
    8   21   SS      2
    8   21   SE      3
    8   21   ES     10
    8   21   EE    -11
    9   16   SS      0
    9   16   SE      3
    9   16   ES     -5
    9   16   EE      0
    9   21   SS      4
    9   21   SE     12
    9   21   ES     -8
    9   21   EE    -12
   10   13   SS     -1
   10   13   SE     12
   10   13   ES    -12
   10   13   EE      0
   11   16   SS      5
   11   16   SE     -8
   11   16   ES    -10
   11   16   EE      9
   11   21   SS     -7
   11   21   SE     -7
   11   21   ES     -5
   11   21   EE      8
   12   19   SS     -1
   12   19   SE     -2
   12   19   ES      9
   12   19   EE     -7
   13   14   SS    -10
   13   14   SE      0
   13   14   ES      9
   13   14   EE      9
   13   15   SS     -1
   13   15   SE    -12
   13   15   ES     12
   13   15   EE     -2
   14   16   SS      5
   14   16   SE      2
   14   16   ES     -9
   14   16   EE      9
   15   17   SS     -4
   15   17   SE      0
   15   17   ES      6
   15   17   EE     -8
   15   19   SS     11
   15   19   SE    -10
   15   19   ES      4
   15   19   EE      8
   16   17   SS     12
   16   17   SE     -7
   16   17   ES    -10
   16   17   EE      6
   16   18   SS     -8
   16   18   SE     -2
   16   18   ES      6
   16   18   EE      0
   16   19   SS      2
   16   19   SE     12
   16   19   ES      7
   16   19   EE    -11
   17   20   SS      5
   17   20   SE      6
   17   20   ES      5
   17   20   EE     12
   18   20   SS      9
   18   20   SE     -4
   18   20   ES     -5
   18   20   EE      1
   19   22   SS      7
   19   22   SE      7
   19   22   ES      5
   19   22   EE     -3
   20   22   SS      5
   20   22   SE    -12
   20   22   ES     -7
   20   22   EE     -8
   21   22   SS    -11
   21   22   SE     -2
   21   22   ES    -11
   21   22   EE      7
************************************************************************
